c This is the enc1_simplified file generate by sty
p cnf 300 311
 1 2 3 0
 -1 -2 0
 -1 -3 0
 -2 -3 0
 31 32 33 0
 -31 -32 0
 -31 -33 0
 -32 -33 0
 61 62 63 0
 -61 -62 0
 -61 -63 0
 -62 -63 0
 73 74 75 0
 -73 -74 0
 -73 -75 0
 -74 -75 0
 157 158 159 0
 -157 -158 0
 -157 -159 0
 -158 -159 0
 187 188 189 0
 -187 -188 0
 -187 -189 0
 -188 -189 0
 193 194 195 0
 -193 -194 0
 -193 -195 0
 -194 -195 0
 223 224 225 0
 -223 -224 0
 -223 -225 0
 -224 -225 0
 253 254 255 0
 -253 -254 0
 -253 -255 0
 -254 -255 0
 265 266 267 0
 -265 -266 0
 -265 -267 0
 -266 -267 0
 295 296 297 0
 -295 -296 0
 -295 -297 0
 -296 -297 0
 -1 -61 -73 4 0
 -1 -61 -74 5 0
 -1 -61 -75 6 0
 -1 -62 -73 7 0
 -1 -62 -74 8 0
 -1 -62 -75 9 0
 -1 -63 -73 10 0
 -1 -63 -74 11 0
 -1 -63 -75 12 0
 -2 -61 -73 13 0
 -2 -61 -74 14 0
 -2 -61 -75 15 0
 -2 -62 -73 16 0
 -2 -62 -74 17 0
 -2 -62 -75 18 0
 -2 -63 -73 19 0
 -2 -63 -74 20 0
 -2 -63 -75 21 0
 -3 -61 -73 22 0
 -3 -61 -74 23 0
 -3 -61 -75 24 0
 -3 -62 -73 25 0
 -3 -62 -74 26 0
 -3 -62 -75 27 0
 -3 -63 -73 28 0
 -3 -63 -74 29 0
 -3 -63 -75 30 0
 -31 -61 -1 34 0
 -31 -61 -2 35 0
 -31 -61 -3 36 0
 -31 -62 -1 37 0
 -31 -62 -2 38 0
 -31 -62 -3 39 0
 -31 -63 -1 40 0
 -31 -63 -2 41 0
 -31 -63 -3 42 0
 -32 -61 -1 43 0
 -32 -61 -2 44 0
 -32 -61 -3 45 0
 -32 -62 -1 46 0
 -32 -62 -2 47 0
 -32 -62 -3 48 0
 -32 -63 -1 49 0
 -32 -63 -2 50 0
 -32 -63 -3 51 0
 -33 -61 -1 52 0
 -33 -61 -2 53 0
 -33 -61 -3 54 0
 -33 -62 -1 55 0
 -33 -62 -2 56 0
 -33 -62 -3 57 0
 -33 -63 -1 58 0
 -33 -63 -2 59 0
 -33 -63 -3 60 0
 -61 -187 64 0
 -61 -188 65 0
 -61 -189 66 0
 -62 -187 67 0
 -62 -188 68 0
 -62 -189 69 0
 -63 -187 70 0
 -63 -188 71 0
 -63 -189 72 0
 -73 -193 -187 -61 76 0
 -73 -193 -187 -62 77 0
 -73 -193 -187 -63 78 0
 -73 -193 -188 -61 79 0
 -73 -193 -188 -62 80 0
 -73 -193 -188 -63 81 0
 -73 -193 -189 -61 82 0
 -73 -193 -189 -62 83 0
 -73 -193 -189 -63 84 0
 -73 -194 -187 -61 85 0
 -73 -194 -187 -62 86 0
 -73 -194 -187 -63 87 0
 -73 -194 -188 -61 88 0
 -73 -194 -188 -62 89 0
 -73 -194 -188 -63 90 0
 -73 -194 -189 -61 91 0
 -73 -194 -189 -62 92 0
 -73 -194 -189 -63 93 0
 -73 -195 -187 -61 94 0
 -73 -195 -187 -62 95 0
 -73 -195 -187 -63 96 0
 -73 -195 -188 -61 97 0
 -73 -195 -188 -62 98 0
 -73 -195 -188 -63 99 0
 -73 -195 -189 -61 100 0
 -73 -195 -189 -62 101 0
 -73 -195 -189 -63 102 0
 -74 -193 -187 -61 103 0
 -74 -193 -187 -62 104 0
 -74 -193 -187 -63 105 0
 -74 -193 -188 -61 106 0
 -74 -193 -188 -62 107 0
 -74 -193 -188 -63 108 0
 -74 -193 -189 -61 109 0
 -74 -193 -189 -62 110 0
 -74 -193 -189 -63 111 0
 -74 -194 -187 -61 112 0
 -74 -194 -187 -62 113 0
 -74 -194 -187 -63 114 0
 -74 -194 -188 -61 115 0
 -74 -194 -188 -62 116 0
 -74 -194 -188 -63 117 0
 -74 -194 -189 -61 118 0
 -74 -194 -189 -62 119 0
 -74 -194 -189 -63 120 0
 -74 -195 -187 -61 121 0
 -74 -195 -187 -62 122 0
 -74 -195 -187 -63 123 0
 -74 -195 -188 -61 124 0
 -74 -195 -188 -62 125 0
 -74 -195 -188 -63 126 0
 -74 -195 -189 -61 127 0
 -74 -195 -189 -62 128 0
 -74 -195 -189 -63 129 0
 -75 -193 -187 -61 130 0
 -75 -193 -187 -62 131 0
 -75 -193 -187 -63 132 0
 -75 -193 -188 -61 133 0
 -75 -193 -188 -62 134 0
 -75 -193 -188 -63 135 0
 -75 -193 -189 -61 136 0
 -75 -193 -189 -62 137 0
 -75 -193 -189 -63 138 0
 -75 -194 -187 -61 139 0
 -75 -194 -187 -62 140 0
 -75 -194 -187 -63 141 0
 -75 -194 -188 -61 142 0
 -75 -194 -188 -62 143 0
 -75 -194 -188 -63 144 0
 -75 -194 -189 -61 145 0
 -75 -194 -189 -62 146 0
 -75 -194 -189 -63 147 0
 -75 -195 -187 -61 148 0
 -75 -195 -187 -62 149 0
 -75 -195 -187 -63 150 0
 -75 -195 -188 -61 151 0
 -75 -195 -188 -62 152 0
 -75 -195 -188 -63 153 0
 -75 -195 -189 -61 154 0
 -75 -195 -189 -62 155 0
 -75 -195 -189 -63 156 0
 -157 -187 -61 160 0
 -157 -187 -62 161 0
 -157 -187 -63 162 0
 -157 -188 -61 163 0
 -157 -188 -62 164 0
 -157 -188 -63 165 0
 -157 -189 -61 166 0
 -157 -189 -62 167 0
 -157 -189 -63 168 0
 -158 -187 -61 169 0
 -158 -187 -62 170 0
 -158 -187 -63 171 0
 -158 -188 -61 172 0
 -158 -188 -62 173 0
 -158 -188 -63 174 0
 -158 -189 -61 175 0
 -158 -189 -62 176 0
 -158 -189 -63 177 0
 -159 -187 -61 178 0
 -159 -187 -62 179 0
 -159 -187 -63 180 0
 -159 -188 -61 181 0
 -159 -188 -62 182 0
 -159 -188 -63 183 0
 -159 -189 -61 184 0
 -159 -189 -62 185 0
 -159 -189 -63 186 0
 -187 190 0
 -188 191 0
 -189 192 0
 -193 -187 -61 196 0
 -193 -187 -62 197 0
 -193 -187 -63 198 0
 -193 -188 -61 199 0
 -193 -188 -62 200 0
 -193 -188 -63 201 0
 -193 -189 -61 202 0
 -193 -189 -62 203 0
 -193 -189 -63 204 0
 -194 -187 -61 205 0
 -194 -187 -62 206 0
 -194 -187 -63 207 0
 -194 -188 -61 208 0
 -194 -188 -62 209 0
 -194 -188 -63 210 0
 -194 -189 -61 211 0
 -194 -189 -62 212 0
 -194 -189 -63 213 0
 -195 -187 -61 214 0
 -195 -187 -62 215 0
 -195 -187 -63 216 0
 -195 -188 -61 217 0
 -195 -188 -62 218 0
 -195 -188 -63 219 0
 -195 -189 -61 220 0
 -195 -189 -62 221 0
 -195 -189 -63 222 0
 -223 -187 -61 226 0
 -223 -187 -62 227 0
 -223 -187 -63 228 0
 -223 -188 -61 229 0
 -223 -188 -62 230 0
 -223 -188 -63 231 0
 -223 -189 -61 232 0
 -223 -189 -62 233 0
 -223 -189 -63 234 0
 -224 -187 -61 235 0
 -224 -187 -62 236 0
 -224 -187 -63 237 0
 -224 -188 -61 238 0
 -224 -188 -62 239 0
 -224 -188 -63 240 0
 -224 -189 -61 241 0
 -224 -189 -62 242 0
 -224 -189 -63 243 0
 -225 -187 -61 244 0
 -225 -187 -62 245 0
 -225 -187 -63 246 0
 -225 -188 -61 247 0
 -225 -188 -62 248 0
 -225 -188 -63 249 0
 -225 -189 -61 250 0
 -225 -189 -62 251 0
 -225 -189 -63 252 0
 -253 -295 256 0
 -253 -296 257 0
 -253 -297 258 0
 -254 -295 259 0
 -254 -296 260 0
 -254 -297 261 0
 -255 -295 262 0
 -255 -296 263 0
 -255 -297 264 0
 -265 -295 -253 268 0
 -265 -295 -254 269 0
 -265 -295 -255 270 0
 -265 -296 -253 271 0
 -265 -296 -254 272 0
 -265 -296 -255 273 0
 -265 -297 -253 274 0
 -265 -297 -254 275 0
 -265 -297 -255 276 0
 -266 -295 -253 277 0
 -266 -295 -254 278 0
 -266 -295 -255 279 0
 -266 -296 -253 280 0
 -266 -296 -254 281 0
 -266 -296 -255 282 0
 -266 -297 -253 283 0
 -266 -297 -254 284 0
 -266 -297 -255 285 0
 -267 -295 -253 286 0
 -267 -295 -254 287 0
 -267 -295 -255 288 0
 -267 -296 -253 289 0
 -267 -296 -254 290 0
 -267 -296 -255 291 0
 -267 -297 -253 292 0
 -267 -297 -254 293 0
 -267 -297 -255 294 0
 -295 298 0
 -296 299 0
 -297 300 0
